Data path: /scratch/opt/lxu/CFLG/benchmarks/tree_B
Instance: treeB.600.30
Result path: /scratch/opt/lxu/CFLG/results/tree_B
Solver: Gurobi
Time limit: 7200
Formulation: EFP
Cover: Large
julia --project=. src/main.jl /scratch/opt/lxu/CFLG/benchmarks/tree_B treeB.600.30 /scratch/opt/lxu/CFLG/results/tree_B Gurobi 7200 EFP Large
The latest version of Julia in the `release` channel is 1.11.5+0.x64.linux.gnu. You currently have `1.11.4+0.x64.linux.gnu` installed. Run:

  juliaup update

in your terminal shell to install Julia 1.11.5+0.x64.linux.gnu and update the `release` channel to that version.
/scratch/opt/lxu/CFLG/benchmarks/tree_B Gurobi 7200.0 /scratch/opt/lxu/CFLG/results/tree_B treeB.600.30 EFP Large
/scratch/opt/lxu/CFLG/benchmarks/tree_B/treeB.600.30

 read graph
data loaded

problem_graph/original graph: node: 600/600 edge: 629/629 dlt: 3.0188339588094 break_avg_len: 1.5094169794047 break_max_len: 1.9995724168774514elapsed CPU time: 0.183006 seconds
Set parameter TokenServer to value "solice01.zib.de"
Set parameter Threads to value 1
Set parameter OutputFlag to value 1
Set parameter MIPGap to value 0.0001
Set parameter MIPGapAbs to value 0.999998
Set parameter TimeLimit to value 7199.816994

 more cuts: false 3.0188339588094 false
is_attach:falseformulation:EFP0 629 0

 model loaded

Gurobi Optimizer version 12.0.1 build v12.0.1rc0 (linux64 - "Debian GNU/Linux 12 (bookworm)")

CPU model: Intel(R) Xeon(R) Gold 5122 CPU @ 3.60GHz, instruction set [SSE2|AVX|AVX2|AVX512]
Thread count: 8 physical cores, 16 logical processors, using up to 1 threads

Non-default parameters:
TimeLimit  7199.816994
MIPGapAbs  0.999998
Threads  1

Optimize a model with 16138 rows, 9474 columns and 44727 nonzeros
Model fingerprint: 0x456956f5
Variable types: 1858 continuous, 7616 integer (7616 binary)
Coefficient statistics:
  Matrix range     [1e-06, 4e+00]
  Objective range  [1e+00, 1e+00]
  Bounds range     [1e+00, 2e+00]
  RHS range        [1e+00, 4e+00]
Found heuristic solution: objective 343.0000000
Presolve removed 4414 rows and 1881 columns
Presolve time: 0.38s
Presolved: 11724 rows, 7593 columns, 53524 nonzeros
Variable types: 1121 continuous, 6472 integer (6472 binary)

Root relaxation: objective 6.895767e+01, 6289 iterations, 0.13 seconds (0.10 work units)

    Nodes    |    Current Node    |     Objective Bounds      |     Work
 Expl Unexpl |  Obj  Depth IntInf | Incumbent    BestBd   Gap | It/Node Time

     0     0   68.95767    0 1458  343.00000   68.95767  79.9%     -    0s
H    0     0                     212.0000000   68.95767  67.5%     -    0s
H    0     0                     177.0000000   68.95767  61.0%     -    0s
     0     0   88.29364    0 1192  177.00000   88.29364  50.1%     -    1s
H    0     0                     174.0000000   88.29364  49.3%     -    1s
     0     0   88.61475    0 1215  174.00000   88.61475  49.1%     -    1s
     0     0   88.61502    0 1211  174.00000   88.61502  49.1%     -    1s
     0     0  101.98382    0 1195  174.00000  101.98382  41.4%     -    1s
     0     0  102.19131    0 1186  174.00000  102.19131  41.3%     -    1s
     0     0  102.19541    0 1188  174.00000  102.19541  41.3%     -    1s
     0     0  107.40041    0 1055  174.00000  107.40041  38.3%     -    1s
H    0     0                     160.0000000  107.40041  32.9%     -    1s
H    0     0                     159.0000000  107.40041  32.5%     -    1s
     0     0  107.46538    0 1088  159.00000  107.46538  32.4%     -    1s
     0     0  107.47201    0 1090  159.00000  107.47201  32.4%     -    1s
     0     0  108.82252    0 1127  159.00000  108.82252  31.6%     -    2s
H    0     0                     158.0000000  108.84228  31.1%     -    2s
     0     0  108.84794    0 1121  158.00000  108.84794  31.1%     -    2s
     0     0  108.86050    0 1133  158.00000  108.86050  31.1%     -    2s
     0     0  108.86126    0 1137  158.00000  108.86126  31.1%     -    2s
     0     0  109.68043    0 1093  158.00000  109.68043  30.6%     -    2s
H    0     0                     157.0000000  109.68043  30.1%     -    2s
     0     0  109.73032    0 1096  157.00000  109.73032  30.1%     -    2s
     0     0  109.74341    0 1099  157.00000  109.74341  30.1%     -    2s
     0     0  109.74364    0 1104  157.00000  109.74364  30.1%     -    2s
     0     0  110.09440    0 1067  157.00000  110.09440  29.9%     -    2s
     0     0  110.29440    0 1081  157.00000  110.29440  29.7%     -    2s
     0     0  110.29440    0 1078  157.00000  110.29440  29.7%     -    2s
     0     0  110.89813    0 1045  157.00000  110.89813  29.4%     -    2s
H    0     0                     154.0000000  110.96480  27.9%     -    2s
H    0     0                     153.0000000  110.96480  27.5%     -    2s
     0     0  110.96480    0 1057  153.00000  110.96480  27.5%     -    2s
     0     0  110.96480    0 1067  153.00000  110.96480  27.5%     -    3s
H    0     0                     151.0000000  110.96480  26.5%     -    3s
     0     0  110.96480    0 1057  151.00000  110.96480  26.5%     -    3s
     0     0  110.96480    0 1072  151.00000  110.96480  26.5%     -    3s
     0     0  110.96480    0  546  151.00000  110.96480  26.5%     -    3s
H    0     0                     144.0000000  111.09710  22.8%     -    3s
H    0     0                     142.0000000  111.09710  21.8%     -    3s
H    0     0                     141.0000000  111.09710  21.2%     -    3s
H    0     0                     140.0000000  111.09710  20.6%     -    3s
H    0     0                     134.0000000  111.09710  17.1%     -    3s
     0     2  111.09710    0  546  134.00000  111.09710  17.1%     -    3s
H   26    26                     132.0000000  111.37488  15.6%   120    4s
   126   126  121.50000   98  255  132.00000  111.37488  15.6%  46.5    5s
H  243   235                     131.0000000  111.37488  15.0%  30.8    5s
H  270   260                     130.0000000  111.37488  14.3%  29.4    5s
   534   506  124.99999  180  414  130.00000  116.74335  10.2%  23.0   10s
H  546   487                     129.0000000  119.87198  7.08%  22.5   12s
H  553   467                     128.0000000  120.39187  5.94%  22.2   14s
H  553   444                     127.0000000  120.39187  5.20%  22.2   14s
   557   447  120.66959   40  401  127.00000  120.66959  4.98%  22.0   15s
   588   467  122.99999  125  293  127.00000  121.78200  4.11%  20.9   20s
   622   491  122.25758   27  281  127.00000  122.25758  3.73%   232   25s
   707   539  123.37857   31  133  127.00000  122.56910  3.49%   290   30s
  1020   641  123.61111   30  164  127.00000  123.03333  3.12%   210   35s
  1523   834  126.00000   48  142  127.00000  123.31111  2.90%   151   40s
  2221   971  126.00000   52   80  127.00000  123.46190  2.79%   115   45s
  2999  1386  126.00000   49  138  127.00000  123.66667  2.62%  94.1   50s
  3825  1774  123.78333   36  177  127.00000  123.78333  2.53%  81.2   55s
  4559  2099  126.00000   46  152  127.00000  123.88333  2.45%  74.1   60s
  5359  2432  126.00000   46  205  127.00000  124.00000  2.36%  68.4   65s
  6177  2769  126.00000   46   99  127.00000  124.10000  2.28%  65.0   70s
  7005  3145  126.00000   47  133  127.00000  124.16667  2.23%  61.7   75s
  7952  3582  126.00000   46  165  127.00000  124.16667  2.23%  58.5   80s
  8856  3941  124.20000   35  154  127.00000  124.20000  2.20%  56.2   85s
  9583  4290  126.00000   42  150  127.00000  124.20000  2.20%  54.4   90s
 10203  4581  125.58333   40  546  127.00000  124.25556  2.16%  52.9  111s
 10212  4587  126.00000   48  268  127.00000  124.25556  2.16%  52.8  115s
 10218  4591  126.00000   46  276  127.00000  124.25556  2.16%  52.8  120s
 10224  4595  125.25000   40  382  127.00000  124.25556  2.16%  52.8  125s
 10230  4599  126.00000   46  309  127.00000  124.25556  2.16%  52.7  130s
 10236  4603  126.00000   54  240  127.00000  124.25556  2.16%  52.7  135s
 10243  4608  126.00000   46  132  127.00000  124.25556  2.16%  52.7  140s
 10253  4614  125.50000   43  222  127.00000  124.25556  2.16%  52.6  145s
 10260  4619  124.83333   38  272  127.00000  124.25556  2.16%  52.6  150s
 10281  4633  126.00000   45  211  127.00000  124.25556  2.16%  52.5  155s
 10307  4650  126.00000   46  257  127.00000  124.25556  2.16%  52.3  160s
 10453  4653  124.84848   47  208  127.00000  124.84848  1.69%  72.3  165s
 10674  4582  125.88889   51  188  127.00000  125.18182  1.43%  71.4  170s
 10996  4500  125.69444   49  193  127.00000  125.63333  1.08%  70.4  175s

Cutting planes:
  Learned: 30
  Gomory: 70
  Lift-and-project: 21
  Cover: 121
  Implied bound: 8
  Clique: 36
  MIR: 91
  StrongCG: 5
  Flow cover: 272
  GUB cover: 108
  Zero half: 145
  Mod-K: 1
  RLT: 42
  Relax-and-lift: 19
  BQP: 11

Explored 11489 nodes (815111 simplex iterations) in 179.83 seconds (118.72 work units)
Thread count was 1 (of 16 available processors)

Solution count 10: 127 127 128 ... 132

Optimal solution found (tolerance 1.00e-04)
Best objective 1.270000000000e+02, best bound 1.270000000000e+02, gap 0.0000%

User-callback calls 93025, time in user-callback 0.13 sec

 sepatime0 0 0
127.0Stat(MathOptInterface.OPTIMAL, 127.0, 127.0, 0.0, 0.0, 0.183006, 179.83368396759033, 11489, Main.CFLG.EFP, "", #undef)
ERROR: LoadError: SystemError: opening file "/scratch/opt/lxu/CFLG/results/tree_B/treeB.600.30.EFP.Large": No such file or directory
Stacktrace:
 [1] systemerror(p::String, errno::Int32; extrainfo::Nothing)
   @ Base ./error.jl:176
 [2] systemerror
   @ ./error.jl:175 [inlined]
 [3] open(fname::String; lock::Bool, read::Nothing, write::Nothing, create::Nothing, truncate::Bool, append::Nothing)
   @ Base ./iostream.jl:295
 [4] open
   @ ./iostream.jl:277 [inlined]
 [5] open(fname::String, mode::String; lock::Bool)
   @ Base ./iostream.jl:358
 [6] open
   @ ./iostream.jl:357 [inlined]
 [7] main(args::Vector{String})
   @ Main /scratch/opt/lxu/CFLG/src/main.jl:51
 [8] top-level scope
   @ /scratch/opt/lxu/CFLG/src/main.jl:57
in expression starting at /scratch/opt/lxu/CFLG/src/main.jl:57
srun: error: htc-cmp474: task 0: Exited with exit code 1
